NAME: tsp_247
COMMENT: Random TSP instance
TYPE: TSP
DIMENSION: 50
EDGE_WEIGHT_TYPE: EUC_2D
NODE_COORD_SECTION
1 259 312
2 328 90
3 240 680
4 328 41
5 749 372
6 608 679
7 149 819
8 358 491
9 958 16
10 473 283
11 499 567
12 228 770
13 969 10
14 124 943
15 532 396
16 390 881
17 213 39
18 754 788
19 595 207
20 591 936
21 269 31
22 345 508
23 543 678
24 356 33
25 581 831
26 249 55
27 481 139
28 121 108
29 71 575
30 995 513
31 419 594
32 908 947
33 199 843
34 800 802
35 883 216
36 208 540
37 836 154
38 590 412
39 624 985
40 683 691
41 443 973
42 145 167
43 734 385
44 117 603
45 977 489
46 368 308
47 13 925
48 153 920
49 969 290
50 903 806
